/* Objective function */
min: +32 NY-DS +30 NY-LG +30 NY-LA +45 NY-KS +50 NY-LZ +55 NY-NK +56 JF-DS +48 JF-LG +44 JF-LA +49 JF-KS +57 JF-LZ
 +61 JF-NK +5 DS-NN +5 DS-KC +9 DS-NC +3 LG-NN +4 LG-KC +7 LG-NC +3 LA-NN +5 LA-KC +8 LA-NC +22 KS-NN
 +19 KS-KC +4 KS-NC +24 LZ-NN +22 LZ-KC +23 LZ-NC +28 NK-NN +25 NK-KC +2 NK-NC;

/* Constraints */
NY: +240 NY-DS +240 NY-LG +240 NY-LA +150 NY-KS +150 NY-LZ +150 NY-NK = 500000;
JF: +240 JF-DS +240 JF-LG +240 JF-LA +150 JF-KS +150 JF-LZ +150 JF-NK = 500000;
DS: -240 NY-DS -240 JF-DS +17.7 DS-NN +17.7 DS-KC +17.7 DS-NC = -50000;
LG: -240 NY-LG -240 JF-LG +17.7 LG-NN +17.7 LG-KC +17.7 LG-NC = -100000;
LA: -240 NY-LA -240 JF-LA +17.7 LA-NN +17.7 LA-KC +17.7 LA-NC = -130000;
KS: -150 NY-KS -150 JF-KS +150 KS-NN +150 KS-KC +150 KS-NC = -90000;
LZ: -150 NY-LZ -150 JF-LZ +150 LZ-NN +150 LZ-KC +150 LZ-NC = -150000;
NK: -150 NY-NK -150 JF-NK +150 NK-NN +150 NK-KC +150 NK-NC = -120000;
NN: -17.7 DS-NN -17.7 LG-NN -17.7 LA-NN -150 KS-NN -150 LZ-NN -150 NK-NN = -100000;
KC: -17.7 DS-KC -17.7 LG-KC -17.7 LA-KC -150 KS-KC -150 LZ-KC -150 NK-KC = -180000;
NC: -17.7 DS-NC -17.7 LG-NC -17.7 LA-NC -150 KS-NC -150 LZ-NC -150 NK-NC = -80000;
UDS-NN: +DS-NN <= 0;
ULG-NN: +LG-NN <= 0;
ULA_NN: +LA-NN <= 0;
UDS-NC: +DS-NC <= 840;
ULG-NC: +LG-NC <= 840;
ULA-NC: +LA-NC <= 840;
UKS-NC: +KS-NC <= 200;
ULZ-NC: +LZ-NC <= 200;
